; DUP1 SWAP3 SWAP2 POP POP => SWAP1 POP SWAP1
(set-option :produce-proofs true)
; 
(set-info :status unknown)
(declare-fun storage_t ((_ BitVec 256) (_ BitVec 256) (_ BitVec 256) Int (_ BitVec 256)) (_ BitVec 256))
(declare-fun storage_s ((_ BitVec 256) (_ BitVec 256) (_ BitVec 256) Int (_ BitVec 256)) (_ BitVec 256))
(declare-fun exc_halt_t (Int) Bool)
(declare-fun exc_halt_s (Int) Bool)
(declare-fun sc_t (Int) (_ BitVec 6))
(declare-fun stack_t ((_ BitVec 256) (_ BitVec 256) (_ BitVec 256) Int (_ BitVec 6)) (_ BitVec 256))
(declare-fun stack_s ((_ BitVec 256) (_ BitVec 256) (_ BitVec 256) Int (_ BitVec 6)) (_ BitVec 256))
(declare-fun sc_s (Int) (_ BitVec 6))
(declare-fun used_gas_t ((_ BitVec 256) (_ BitVec 256) (_ BitVec 256) Int) Int)
(declare-fun used_gas_s ((_ BitVec 256) (_ BitVec 256) (_ BitVec 256) Int) Int)
(assert
 (exists ((x_0 (_ BitVec 256)) (x_1 (_ BitVec 256)) (x_2 (_ BitVec 256)) )(let (($x510 (forall ((w (_ BitVec 256)) )(let ((?x507 (storage_t x_0 x_1 x_2 3 w)))
 (let ((?x508 (storage_s x_0 x_1 x_2 5 w)))
 (= ?x508 ?x507))))
 ))
 (let (($x22 (exc_halt_t 3)))
 (let (($x23 (exc_halt_s 5)))
 (let (($x24 (= $x23 $x22)))
 (let (($x953 (forall ((n (_ BitVec 6)) )(let ((?x512 (stack_t x_0 x_1 x_2 3 n)))
 (let ((?x513 (stack_s x_0 x_1 x_2 5 n)))
 (let (($x514 (= ?x513 ?x512)))
 (or $x514 (bvsle (sc_t 3) n))))))
 ))
 (let ((?x30 (sc_t 3)))
 (let ((?x40 (sc_s 5)))
 (let (($x41 (= ?x40 ?x30)))
 (let ((?x520 (used_gas_t x_0 x_1 x_2 0)))
 (let ((?x521 (used_gas_s x_0 x_1 x_2 0)))
 (let (($x522 (= ?x521 ?x520)))
 (let (($x527 (forall ((w (_ BitVec 256)) )(let ((?x524 (storage_t x_0 x_1 x_2 0 w)))
 (let ((?x525 (storage_s x_0 x_1 x_2 0 w)))
 (= ?x525 ?x524))))
 ))
 (let (($x56 (exc_halt_t 0)))
 (let (($x57 (exc_halt_s 0)))
 (let (($x58 (= $x57 $x56)))
 (let (($x950 (forall ((n (_ BitVec 6)) )(let ((?x529 (stack_t x_0 x_1 x_2 0 n)))
 (let ((?x530 (stack_s x_0 x_1 x_2 0 n)))
 (let (($x531 (= ?x530 ?x529)))
 (or $x531 (bvsle (sc_t 0) n))))))
 ))
 (let ((?x63 (sc_t 0)))
 (let ((?x72 (sc_s 0)))
 (let (($x73 (= ?x72 ?x63)))
 (let (($x946 (= $x22 (or (exc_halt_t 2) (not (bvsle (_ bv0 6) (bvadd (_ bv62 6) (sc_t 2))))))))
 (let (($x942 (forall ((w (_ BitVec 256)) )(let ((?x537 (storage_t x_0 x_1 x_2 2 w)))
 (let ((?x507 (storage_t x_0 x_1 x_2 3 w)))
 (= ?x507 ?x537))))
 ))
 (let (($x941 (forall ((n (_ BitVec 6)) )(let ((?x541 (stack_t x_0 x_1 x_2 2 n)))
 (let ((?x512 (stack_t x_0 x_1 x_2 3 n)))
 (or (bvsle (bvadd (_ bv62 6) (sc_t 2)) n) (= ?x512 ?x541)))))
 ))
 (let (($x935 (= (used_gas_t x_0 x_1 x_2 3) (+ 3 (used_gas_t x_0 x_1 x_2 2)))))
 (let (($x932 (= (stack_t x_0 x_1 x_2 3 (bvadd (_ bv62 6) ?x30)) (stack_t x_0 x_1 x_2 2 (bvadd (_ bv63 6) (sc_t 2))))))
 (let (($x925 (= (stack_t x_0 x_1 x_2 3 (bvadd (_ bv63 6) ?x30)) (stack_t x_0 x_1 x_2 2 (bvadd (_ bv62 6) (sc_t 2))))))
 (let (($x475 (exc_halt_t 2)))
 (let (($x918 (= $x475 (or (exc_halt_t 1) (not (bvsle (_ bv0 6) (bvadd (_ bv63 6) (sc_t 1))))))))
 (let (($x914 (forall ((w (_ BitVec 256)) )(let ((?x563 (storage_t x_0 x_1 x_2 1 w)))
 (let ((?x537 (storage_t x_0 x_1 x_2 2 w)))
 (= ?x537 ?x563))))
 ))
 (let (($x913 (forall ((n (_ BitVec 6)) )(let ((?x567 (stack_t x_0 x_1 x_2 1 n)))
 (let ((?x541 (stack_t x_0 x_1 x_2 2 n)))
 (or (bvsle (bvadd (_ bv63 6) (sc_t 1)) n) (= ?x541 ?x567)))))
 ))
 (let ((?x549 (used_gas_t x_0 x_1 x_2 2)))
 (let (($x901 (forall ((w (_ BitVec 256)) )(let ((?x524 (storage_t x_0 x_1 x_2 0 w)))
 (let ((?x563 (storage_t x_0 x_1 x_2 1 w)))
 (= ?x563 ?x524))))
 ))
 (let (($x900 (forall ((n (_ BitVec 6)) )(let ((?x529 (stack_t x_0 x_1 x_2 0 n)))
 (let ((?x567 (stack_t x_0 x_1 x_2 1 n)))
 (or (bvsle (bvadd (_ bv62 6) (sc_t 0)) n) (= ?x567 ?x529)))))
 ))
 (let (($x892 (= (stack_t x_0 x_1 x_2 1 (bvadd (_ bv62 6) (sc_t 1))) (stack_t x_0 x_1 x_2 0 (bvadd (_ bv63 6) ?x63)))))
 (let (($x885 (= (stack_t x_0 x_1 x_2 1 (bvadd (_ bv63 6) (sc_t 1))) (stack_t x_0 x_1 x_2 0 (bvadd (_ bv62 6) ?x63)))))
 (let (($x878 (= $x23 (or (exc_halt_s 4) (not (bvsle (_ bv0 6) (bvadd (_ bv63 6) (sc_s 4))))))))
 (let (($x868 (forall ((w (_ BitVec 256)) )(let ((?x604 (storage_s x_0 x_1 x_2 4 w)))
 (let ((?x508 (storage_s x_0 x_1 x_2 5 w)))
 (= ?x508 ?x604))))
 ))
 (let (($x873 (forall ((n (_ BitVec 6)) )(let ((?x608 (stack_s x_0 x_1 x_2 4 n)))
 (let ((?x513 (stack_s x_0 x_1 x_2 5 n)))
 (or (bvsle (bvadd (_ bv63 6) (sc_s 4)) n) (= ?x513 ?x608)))))
 ))
 (let (($x865 (= (used_gas_s x_0 x_1 x_2 5) (+ 2 (used_gas_s x_0 x_1 x_2 4)))))
 (let (($x337 (exc_halt_s 4)))
 (let (($x862 (= $x337 (or (exc_halt_s 3) (not (bvsle (_ bv0 6) (bvadd (_ bv63 6) (sc_s 3))))))))
 (let (($x858 (forall ((w (_ BitVec 256)) )(let ((?x622 (storage_s x_0 x_1 x_2 3 w)))
 (let ((?x604 (storage_s x_0 x_1 x_2 4 w)))
 (= ?x604 ?x622))))
 ))
 (let (($x857 (forall ((n (_ BitVec 6)) )(let ((?x626 (stack_s x_0 x_1 x_2 3 n)))
 (let ((?x608 (stack_s x_0 x_1 x_2 4 n)))
 (or (bvsle (bvadd (_ bv63 6) (sc_s 3)) n) (= ?x608 ?x626)))))
 ))
 (let ((?x616 (used_gas_s x_0 x_1 x_2 4)))
 (let (($x292 (exc_halt_s 3)))
 (let (($x849 (= $x292 (or (exc_halt_s 2) (not (bvsle (_ bv0 6) (bvadd (_ bv61 6) (sc_s 2))))))))
 (let (($x845 (forall ((w (_ BitVec 256)) )(let ((?x640 (storage_s x_0 x_1 x_2 2 w)))
 (let ((?x622 (storage_s x_0 x_1 x_2 3 w)))
 (= ?x622 ?x640))))
 ))
 (let (($x844 (forall ((n (_ BitVec 6)) )(let ((?x644 (stack_s x_0 x_1 x_2 2 n)))
 (let ((?x626 (stack_s x_0 x_1 x_2 3 n)))
 (or (bvsle (bvadd (_ bv61 6) (sc_s 2)) n) (= ?x626 ?x644)))))
 ))
 (let ((?x634 (used_gas_s x_0 x_1 x_2 3)))
 (let ((?x807 (stack_s x_0 x_1 x_2 2 (bvadd (_ bv62 6) (sc_s 2)))))
 (let ((?x783 (stack_s x_0 x_1 x_2 2 (bvadd (_ bv63 6) (sc_s 2)))))
 (let ((?x218 (sc_s 2)))
 (let ((?x797 (bvadd (_ bv61 6) ?x218)))
 (let ((?x798 (stack_s x_0 x_1 x_2 2 ?x797)))
 (let (($x247 (exc_halt_s 2)))
 (let (($x824 (= $x247 (or (exc_halt_s 1) (not (bvsle (_ bv0 6) (bvadd (_ bv60 6) (sc_s 1))))))))
 (let (($x820 (forall ((w (_ BitVec 256)) )(let ((?x669 (storage_s x_0 x_1 x_2 1 w)))
 (let ((?x640 (storage_s x_0 x_1 x_2 2 w)))
 (= ?x640 ?x669))))
 ))
 (let (($x819 (forall ((n (_ BitVec 6)) )(let ((?x673 (stack_s x_0 x_1 x_2 1 n)))
 (let ((?x644 (stack_s x_0 x_1 x_2 2 n)))
 (or (bvsle (bvadd (_ bv60 6) (sc_s 1)) n) (= ?x644 ?x673)))))
 ))
 (let ((?x652 (used_gas_s x_0 x_1 x_2 2)))
 (let ((?x752 (stack_s x_0 x_1 x_2 1 (bvadd (_ bv63 6) (sc_s 1)))))
 (let (($x779 (or $x57 (not (bvsle (_ bv0 6) (bvadd (_ bv63 6) ?x72))) (not (= ((_ extract 6 6) (bvadd (_ bv1 7) (concat (_ bv0 1) ?x72))) (_ bv0 1))))))
 (let (($x189 (exc_halt_s 1)))
 (let (($x768 (forall ((w (_ BitVec 256)) )(let ((?x525 (storage_s x_0 x_1 x_2 0 w)))
 (let ((?x669 (storage_s x_0 x_1 x_2 1 w)))
 (= ?x669 ?x525))))
 ))
 (let (($x767 (forall ((n (_ BitVec 6)) )(let ((?x530 (stack_s x_0 x_1 x_2 0 n)))
 (let ((?x673 (stack_s x_0 x_1 x_2 1 n)))
 (or (bvsle (bvadd (_ bv63 6) (sc_s 0)) n) (= ?x673 ?x530)))))
 ))
 (let ((?x754 (bvadd (_ bv63 6) ?x72)))
 (let ((?x755 (stack_s x_0 x_1 x_2 0 ?x754)))
 (let (($x724 (forall ((w (_ BitVec 256)) )(let ((?x525 (storage_s x_0 x_1 x_2 0 w)))
 (= ?x525 (_ bv0 256))))
 ))
 (let (($x725 (= ?x521 0)))
 (let (($x729 (= (stack_s x_0 x_1 x_2 0 (_ bv2 6)) x_2)))
 (let (($x731 (= (stack_s x_0 x_1 x_2 0 (_ bv1 6)) x_1)))
 (let (($x733 (= (stack_s x_0 x_1 x_2 0 (_ bv0 6)) x_0)))
 (let (($x96 (= ?x72 (_ bv3 6))))
 (and $x96 $x733 $x731 $x729 (not $x57) $x725 $x724 (= ?x752 ?x755) (= (stack_s x_0 x_1 x_2 1 ?x754) ?x755) (= (used_gas_s x_0 x_1 x_2 1) (+ 3 ?x521)) (= (sc_s 1) (bvadd (_ bv1 6) ?x72)) $x767 $x768 (= $x189 $x779) (= ?x783 (stack_s x_0 x_1 x_2 1 (bvadd (_ bv60 6) (sc_s 1)))) (= (stack_s x_0 x_1 x_2 2 (bvadd (_ bv60 6) ?x218)) ?x752) (= ?x798 (stack_s x_0 x_1 x_2 1 (bvadd (_ bv61 6) (sc_s 1)))) (= ?x807 (stack_s x_0 x_1 x_2 1 (bvadd (_ bv62 6) (sc_s 1)))) (= ?x652 (+ 3 (used_gas_s x_0 x_1 x_2 1))) (= ?x218 (sc_s 1)) $x819 $x820 $x824 (= (stack_s x_0 x_1 x_2 3 (bvadd (_ bv63 6) (sc_s 3))) ?x798) (= (stack_s x_0 x_1 x_2 3 (bvadd (_ bv61 6) (sc_s 3))) ?x783) (= (stack_s x_0 x_1 x_2 3 (bvadd (_ bv62 6) (sc_s 3))) ?x807) (= ?x634 (+ 3 ?x652)) (= (sc_s 3) ?x218) $x844 $x845 $x849 (= ?x616 (+ 2 ?x634)) (= (sc_s 4) (bvadd (_ bv63 6) (sc_s 3))) $x857 $x858 $x862 $x865 (= ?x40 (bvadd (_ bv63 6) (sc_s 4))) $x873 $x868 $x878 $x885 $x892 (= (used_gas_t x_0 x_1 x_2 1) (+ 3 ?x520)) (= (sc_t 1) ?x63) $x900 $x901 (= (exc_halt_t 1) (or $x56 (not (bvsle (_ bv0 6) (bvadd (_ bv62 6) ?x63))))) (= ?x549 (+ 2 (used_gas_t x_0 x_1 x_2 1))) (= (sc_t 2) (bvadd (_ bv63 6) (sc_t 1))) $x913 $x914 $x918 $x925 $x932 $x935 (= ?x30 (sc_t 2)) $x941 $x942 $x946 $x73 $x950 $x58 $x527 $x522 (not (and $x41 $x953 $x24 $x510)))))))))))))))))))))))))))))))))))))))))))))))))))))))))))))))))))))))))))
 )
(check-sat)
(get-proof)
